14
117
190
86
126
205
214
85
231
60
90
3
226
222
133
120
134
31
93
55
157
67
0
180
202
59
101
227
88
146
82
91
45
159
234
143
142
64
218
84
51
151
241
62
112
104
138
215
229
83
7
154
152
209
184
216
10
95
177
119
238
17
140
5
97
6
40
1
207
35
135
217
219
188
206
69
48
124
89
61
37
170
111
72
77
79
131
201
103
232
161
78
109
16
132
247
230
197
175
160
242
129
8
29
196
73
25
248
174
136
194
254
11
28
155
210
